NAME: B-n50-k8
COMMENT: GVRP
DIMENSION:  50 
VEHICLES:  3 
GVRP_SETS:  17 
CAPACITY:  100 
NODE_COORD_SECTION 
1 8.000000 12.000000
2 63.000000 77.000000
3 19.000000 10.000000
4 39.000000 49.000000
5 86.000000 5.000000
6 96.000000 64.000000
7 34.000000 25.000000
8 44.000000 15.000000
9 58.000000 90.000000
10 49.000000 21.000000
11 43.000000 57.000000
12 52.000000 28.000000
13 47.000000 22.000000
14 40.000000 50.000000
15 44.000000 34.000000
16 0.000000 70.000000
17 56.000000 30.000000
18 60.000000 98.000000
19 103.000000 0.000000
20 105.000000 70.000000
21 45.000000 25.000000
22 64.000000 82.000000
23 44.000000 50.000000
24 44.000000 53.000000
25 59.000000 27.000000
26 54.000000 16.000000
27 92.000000 11.000000
28 46.000000 22.000000
29 98.000000 74.000000
30 103.000000 72.000000
31 44.000000 29.000000
32 39.000000 30.000000
33 97.000000 71.000000
34 49.000000 22.000000
35 22.000000 13.000000
36 44.000000 58.000000
37 50.000000 25.000000
38 46.000000 21.000000
39 44.000000 50.000000
40 51.000000 66.000000
41 28.000000 12.000000
42 50.000000 59.000000
43 61.000000 92.000000
44 52.000000 25.000000
45 21.000000 16.000000
46 51.000000 61.000000
47 46.000000 51.000000
48 91.000000 13.000000
49 25.000000 13.000000
50 53.000000 22.000000
GVRP_SET_SECTION 
 1 20  29  30 -1
 2  3  35  45 -1
 3  19 -1
 4  16 -1
 5  18  9  43 -1
 6  47  4  11  14  23  24  36  39 -1
 7  26  50 -1
 8  2  22 -1
 9  7 -1
 10  5  27  48 -1
 11  40  42  46 -1
 12  17  12  25  44 -1
 13  15  32 -1
 14  6  33 -1
 15  8 -1
 16  21  10  13  28  31  34  37  38 -1
 17  41  49 -1
 DEMAND_SECTION
 1 20 
 2 7 
 3 12 
 4 16 
 5 16 
 6 13 
 7 16 
 8 18 
 9 13 
 10 12 
 11 19 
 12 11 
 13 17 
 14 45 
 15 25 
 16 10 
 17 2 
INTRA_CLUSTER_DISTANCE
100000000 100000000 100000000 100000000 100000000 100000000 100000000 100000000 100000000 100000000 100000000 100000000 100000000 100000000 100000000 100000000 100000000 100000000 100000000 100000000 100000000 100000000 100000000 100000000 100000000 100000000 100000000 100000000 100000000 100000000 100000000 100000000 100000000 100000000 100000000 100000000 100000000 100000000 100000000 100000000 100000000 100000000 100000000 100000000 100000000 100000000 100000000 100000000 100000000 100000000 
100000000 100000000 100000000 100000000 100000000 100000000 100000000 100000000 100000000 100000000 100000000 100000000 100000000 100000000 100000000 100000000 100000000 100000000 100000000 100000000 100000000 5 100000000 100000000 100000000 100000000 100000000 100000000 100000000 100000000 100000000 100000000 100000000 100000000 100000000 100000000 100000000 100000000 100000000 100000000 100000000 100000000 100000000 100000000 100000000 100000000 100000000 100000000 100000000 100000000 
100000000 100000000 100000000 100000000 100000000 100000000 100000000 100000000 100000000 100000000 100000000 100000000 100000000 100000000 100000000 100000000 100000000 100000000 100000000 100000000 100000000 100000000 100000000 100000000 100000000 100000000 100000000 100000000 100000000 100000000 100000000 100000000 100000000 100000000 9 100000000 100000000 100000000 100000000 100000000 100000000 100000000 100000000 100000000 7 100000000 100000000 100000000 100000000 100000000 
100000000 100000000 100000000 100000000 100000000 100000000 100000000 100000000 100000000 100000000 16 100000000 100000000 24 100000000 100000000 100000000 100000000 100000000 100000000 100000000 100000000 20 19 100000000 100000000 100000000 100000000 100000000 100000000 100000000 100000000 100000000 100000000 100000000 15 100000000 100000000 20 100000000 100000000 100000000 100000000 100000000 100000000 100000000 20 100000000 100000000 100000000 
100000000 100000000 100000000 100000000 100000000 100000000 100000000 100000000 100000000 100000000 100000000 100000000 100000000 100000000 100000000 100000000 100000000 100000000 100000000 100000000 100000000 100000000 100000000 100000000 100000000 100000000 11 100000000 100000000 100000000 100000000 100000000 100000000 100000000 100000000 100000000 100000000 100000000 100000000 100000000 100000000 100000000 100000000 100000000 100000000 100000000 100000000 10 100000000 100000000 
100000000 100000000 100000000 100000000 100000000 100000000 100000000 100000000 100000000 100000000 100000000 100000000 100000000 100000000 100000000 100000000 100000000 100000000 100000000 100000000 100000000 100000000 100000000 100000000 100000000 100000000 100000000 100000000 100000000 100000000 100000000 100000000 7 100000000 100000000 100000000 100000000 100000000 100000000 100000000 100000000 100000000 100000000 100000000 100000000 100000000 100000000 100000000 100000000 100000000 
100000000 100000000 100000000 100000000 100000000 100000000 100000000 100000000 100000000 100000000 100000000 100000000 100000000 100000000 100000000 100000000 100000000 100000000 100000000 100000000 100000000 100000000 100000000 100000000 100000000 100000000 100000000 100000000 100000000 100000000 100000000 100000000 100000000 100000000 100000000 100000000 100000000 100000000 100000000 100000000 100000000 100000000 100000000 100000000 100000000 100000000 100000000 100000000 100000000 100000000 
100000000 100000000 100000000 100000000 100000000 100000000 100000000 100000000 100000000 100000000 100000000 100000000 100000000 100000000 100000000 100000000 100000000 100000000 100000000 100000000 100000000 100000000 100000000 100000000 100000000 100000000 100000000 100000000 100000000 100000000 100000000 100000000 100000000 100000000 100000000 100000000 100000000 100000000 100000000 100000000 100000000 100000000 100000000 100000000 100000000 100000000 100000000 100000000 100000000 100000000 
100000000 100000000 100000000 100000000 100000000 100000000 100000000 100000000 100000000 100000000 100000000 100000000 100000000 100000000 100000000 100000000 100000000 10 100000000 100000000 100000000 100000000 100000000 100000000 100000000 100000000 100000000 100000000 100000000 100000000 100000000 100000000 100000000 100000000 100000000 100000000 100000000 100000000 100000000 100000000 100000000 100000000 14 100000000 100000000 100000000 100000000 100000000 100000000 100000000 
100000000 100000000 100000000 100000000 100000000 100000000 100000000 100000000 100000000 100000000 100000000 100000000 20 100000000 100000000 100000000 100000000 100000000 100000000 100000000 21 100000000 100000000 100000000 100000000 100000000 100000000 21 100000000 100000000 17 100000000 100000000 21 100000000 100000000 19 20 100000000 100000000 100000000 100000000 100000000 100000000 100000000 100000000 100000000 100000000 100000000 100000000 
100000000 100000000 100000000 16 100000000 100000000 100000000 100000000 100000000 100000000 100000000 100000000 100000000 17 100000000 100000000 100000000 100000000 100000000 100000000 100000000 100000000 21 21 100000000 100000000 100000000 100000000 100000000 100000000 100000000 100000000 100000000 100000000 100000000 24 100000000 100000000 21 100000000 100000000 100000000 100000000 100000000 100000000 100000000 19 100000000 100000000 100000000 
100000000 100000000 100000000 100000000 100000000 100000000 100000000 100000000 100000000 100000000 100000000 100000000 100000000 100000000 100000000 100000000 14 100000000 100000000 100000000 100000000 100000000 100000000 100000000 13 100000000 100000000 100000000 100000000 100000000 100000000 100000000 100000000 100000000 100000000 100000000 100000000 100000000 100000000 100000000 100000000 100000000 100000000 15 100000000 100000000 100000000 100000000 100000000 100000000 
100000000 100000000 100000000 100000000 100000000 100000000 100000000 100000000 100000000 20 100000000 100000000 100000000 100000000 100000000 100000000 100000000 100000000 100000000 100000000 20 100000000 100000000 100000000 100000000 100000000 100000000 22 100000000 100000000 18 100000000 100000000 21 100000000 100000000 21 21 100000000 100000000 100000000 100000000 100000000 100000000 100000000 100000000 100000000 100000000 100000000 100000000 
100000000 100000000 100000000 24 100000000 100000000 100000000 100000000 100000000 100000000 17 100000000 100000000 100000000 100000000 100000000 100000000 100000000 100000000 100000000 100000000 100000000 21 20 100000000 100000000 100000000 100000000 100000000 100000000 100000000 100000000 100000000 100000000 100000000 16 100000000 100000000 21 100000000 100000000 100000000 100000000 100000000 100000000 100000000 21 100000000 100000000 100000000 
100000000 100000000 100000000 100000000 100000000 100000000 100000000 100000000 100000000 100000000 100000000 100000000 100000000 100000000 100000000 100000000 100000000 100000000 100000000 100000000 100000000 100000000 100000000 100000000 100000000 100000000 100000000 100000000 100000000 100000000 100000000 6 100000000 100000000 100000000 100000000 100000000 100000000 100000000 100000000 100000000 100000000 100000000 100000000 100000000 100000000 100000000 100000000 100000000 100000000 
100000000 100000000 100000000 100000000 100000000 100000000 100000000 100000000 100000000 100000000 100000000 100000000 100000000 100000000 100000000 100000000 100000000 100000000 100000000 100000000 100000000 100000000 100000000 100000000 100000000 100000000 100000000 100000000 100000000 100000000 100000000 100000000 100000000 100000000 100000000 100000000 100000000 100000000 100000000 100000000 100000000 100000000 100000000 100000000 100000000 100000000 100000000 100000000 100000000 100000000 
100000000 100000000 100000000 100000000 100000000 100000000 100000000 100000000 100000000 100000000 100000000 14 100000000 100000000 100000000 100000000 100000000 100000000 100000000 100000000 100000000 100000000 100000000 100000000 14 100000000 100000000 100000000 100000000 100000000 100000000 100000000 100000000 100000000 100000000 100000000 100000000 100000000 100000000 100000000 100000000 100000000 100000000 14 100000000 100000000 100000000 100000000 100000000 100000000 
100000000 100000000 100000000 100000000 100000000 100000000 100000000 100000000 10 100000000 100000000 100000000 100000000 100000000 100000000 100000000 100000000 100000000 100000000 100000000 100000000 100000000 100000000 100000000 100000000 100000000 100000000 100000000 100000000 100000000 100000000 100000000 100000000 100000000 100000000 100000000 100000000 100000000 100000000 100000000 100000000 100000000 12 100000000 100000000 100000000 100000000 100000000 100000000 100000000 
100000000 100000000 100000000 100000000 100000000 100000000 100000000 100000000 100000000 100000000 100000000 100000000 100000000 100000000 100000000 100000000 100000000 100000000 100000000 100000000 100000000 100000000 100000000 100000000 100000000 100000000 100000000 100000000 100000000 100000000 100000000 100000000 100000000 100000000 100000000 100000000 100000000 100000000 100000000 100000000 100000000 100000000 100000000 100000000 100000000 100000000 100000000 100000000 100000000 100000000 
100000000 100000000 100000000 100000000 100000000 100000000 100000000 100000000 100000000 100000000 100000000 100000000 100000000 100000000 100000000 100000000 100000000 100000000 100000000 100000000 100000000 100000000 100000000 100000000 100000000 100000000 100000000 100000000 8 13 100000000 100000000 100000000 100000000 100000000 100000000 100000000 100000000 100000000 100000000 100000000 100000000 100000000 100000000 100000000 100000000 100000000 100000000 100000000 100000000 
100000000 100000000 100000000 100000000 100000000 100000000 100000000 100000000 100000000 21 100000000 100000000 20 100000000 100000000 100000000 100000000 100000000 100000000 100000000 100000000 100000000 100000000 100000000 100000000 100000000 100000000 19 100000000 100000000 18 100000000 100000000 21 100000000 100000000 19 19 100000000 100000000 100000000 100000000 100000000 100000000 100000000 100000000 100000000 100000000 100000000 100000000 
100000000 5 100000000 100000000 100000000 100000000 100000000 100000000 100000000 100000000 100000000 100000000 100000000 100000000 100000000 100000000 100000000 100000000 100000000 100000000 100000000 100000000 100000000 100000000 100000000 100000000 100000000 100000000 100000000 100000000 100000000 100000000 100000000 100000000 100000000 100000000 100000000 100000000 100000000 100000000 100000000 100000000 100000000 100000000 100000000 100000000 100000000 100000000 100000000 100000000 
100000000 100000000 100000000 20 100000000 100000000 100000000 100000000 100000000 100000000 21 100000000 100000000 21 100000000 100000000 100000000 100000000 100000000 100000000 100000000 100000000 100000000 24 100000000 100000000 100000000 100000000 100000000 100000000 100000000 100000000 100000000 100000000 100000000 20 100000000 100000000 25 100000000 100000000 100000000 100000000 100000000 100000000 100000000 23 100000000 100000000 100000000 
100000000 100000000 100000000 19 100000000 100000000 100000000 100000000 100000000 100000000 21 100000000 100000000 20 100000000 100000000 100000000 100000000 100000000 100000000 100000000 100000000 24 100000000 100000000 100000000 100000000 100000000 100000000 100000000 100000000 100000000 100000000 100000000 100000000 20 100000000 100000000 24 100000000 100000000 100000000 100000000 100000000 100000000 100000000 22 100000000 100000000 100000000 
100000000 100000000 100000000 100000000 100000000 100000000 100000000 100000000 100000000 100000000 100000000 13 100000000 100000000 100000000 100000000 14 100000000 100000000 100000000 100000000 100000000 100000000 100000000 100000000 100000000 100000000 100000000 100000000 100000000 100000000 100000000 100000000 100000000 100000000 100000000 100000000 100000000 100000000 100000000 100000000 100000000 100000000 11 100000000 100000000 100000000 100000000 100000000 100000000 
100000000 100000000 100000000 100000000 100000000 100000000 100000000 100000000 100000000 100000000 100000000 100000000 100000000 100000000 100000000 100000000 100000000 100000000 100000000 100000000 100000000 100000000 100000000 100000000 100000000 100000000 100000000 100000000 100000000 100000000 100000000 100000000 100000000 100000000 100000000 100000000 100000000 100000000 100000000 100000000 100000000 100000000 100000000 100000000 100000000 100000000 100000000 100000000 100000000 6 
100000000 100000000 100000000 100000000 11 100000000 100000000 100000000 100000000 100000000 100000000 100000000 100000000 100000000 100000000 100000000 100000000 100000000 100000000 100000000 100000000 100000000 100000000 100000000 100000000 100000000 100000000 100000000 100000000 100000000 100000000 100000000 100000000 100000000 100000000 100000000 100000000 100000000 100000000 100000000 100000000 100000000 100000000 100000000 100000000 100000000 100000000 17 100000000 100000000 
100000000 100000000 100000000 100000000 100000000 100000000 100000000 100000000 100000000 21 100000000 100000000 22 100000000 100000000 100000000 100000000 100000000 100000000 100000000 19 100000000 100000000 100000000 100000000 100000000 100000000 100000000 100000000 100000000 17 100000000 100000000 22 100000000 100000000 21 21 100000000 100000000 100000000 100000000 100000000 100000000 100000000 100000000 100000000 100000000 100000000 100000000 
100000000 100000000 100000000 100000000 100000000 100000000 100000000 100000000 100000000 100000000 100000000 100000000 100000000 100000000 100000000 100000000 100000000 100000000 100000000 8 100000000 100000000 100000000 100000000 100000000 100000000 100000000 100000000 100000000 11 100000000 100000000 100000000 100000000 100000000 100000000 100000000 100000000 100000000 100000000 100000000 100000000 100000000 100000000 100000000 100000000 100000000 100000000 100000000 100000000 
100000000 100000000 100000000 100000000 100000000 100000000 100000000 100000000 100000000 100000000 100000000 100000000 100000000 100000000 100000000 100000000 100000000 100000000 100000000 13 100000000 100000000 100000000 100000000 100000000 100000000 100000000 100000000 11 100000000 100000000 100000000 100000000 100000000 100000000 100000000 100000000 100000000 100000000 100000000 100000000 100000000 100000000 100000000 100000000 100000000 100000000 100000000 100000000 100000000 
100000000 100000000 100000000 100000000 100000000 100000000 100000000 100000000 100000000 17 100000000 100000000 18 100000000 100000000 100000000 100000000 100000000 100000000 100000000 18 100000000 100000000 100000000 100000000 100000000 100000000 17 100000000 100000000 100000000 100000000 100000000 18 100000000 100000000 15 17 100000000 100000000 100000000 100000000 100000000 100000000 100000000 100000000 100000000 100000000 100000000 100000000 
100000000 100000000 100000000 100000000 100000000 100000000 100000000 100000000 100000000 100000000 100000000 100000000 100000000 100000000 6 100000000 100000000 100000000 100000000 100000000 100000000 100000000 100000000 100000000 100000000 100000000 100000000 100000000 100000000 100000000 100000000 100000000 100000000 100000000 100000000 100000000 100000000 100000000 100000000 100000000 100000000 100000000 100000000 100000000 100000000 100000000 100000000 100000000 100000000 100000000 
100000000 100000000 100000000 100000000 100000000 7 100000000 100000000 100000000 100000000 100000000 100000000 100000000 100000000 100000000 100000000 100000000 100000000 100000000 100000000 100000000 100000000 100000000 100000000 100000000 100000000 100000000 100000000 100000000 100000000 100000000 100000000 100000000 100000000 100000000 100000000 100000000 100000000 100000000 100000000 100000000 100000000 100000000 100000000 100000000 100000000 100000000 100000000 100000000 100000000 
100000000 100000000 100000000 100000000 100000000 100000000 100000000 100000000 100000000 21 100000000 100000000 21 100000000 100000000 100000000 100000000 100000000 100000000 100000000 21 100000000 100000000 100000000 100000000 100000000 100000000 22 100000000 100000000 18 100000000 100000000 100000000 100000000 100000000 19 21 100000000 100000000 100000000 100000000 100000000 100000000 100000000 100000000 100000000 100000000 100000000 100000000 
100000000 100000000 9 100000000 100000000 100000000 100000000 100000000 100000000 100000000 100000000 100000000 100000000 100000000 100000000 100000000 100000000 100000000 100000000 100000000 100000000 100000000 100000000 100000000 100000000 100000000 100000000 100000000 100000000 100000000 100000000 100000000 100000000 100000000 100000000 100000000 100000000 100000000 100000000 100000000 100000000 100000000 100000000 100000000 10 100000000 100000000 100000000 100000000 100000000 
100000000 100000000 100000000 15 100000000 100000000 100000000 100000000 100000000 100000000 24 100000000 100000000 16 100000000 100000000 100000000 100000000 100000000 100000000 100000000 100000000 20 20 100000000 100000000 100000000 100000000 100000000 100000000 100000000 100000000 100000000 100000000 100000000 100000000 100000000 100000000 20 100000000 100000000 100000000 100000000 100000000 100000000 100000000 18 100000000 100000000 100000000 
100000000 100000000 100000000 100000000 100000000 100000000 100000000 100000000 100000000 19 100000000 100000000 21 100000000 100000000 100000000 100000000 100000000 100000000 100000000 19 100000000 100000000 100000000 100000000 100000000 100000000 21 100000000 100000000 15 100000000 100000000 19 100000000 100000000 100000000 21 100000000 100000000 100000000 100000000 100000000 100000000 100000000 100000000 100000000 100000000 100000000 100000000 
100000000 100000000 100000000 100000000 100000000 100000000 100000000 100000000 100000000 20 100000000 100000000 21 100000000 100000000 100000000 100000000 100000000 100000000 100000000 19 100000000 100000000 100000000 100000000 100000000 100000000 21 100000000 100000000 17 100000000 100000000 21 100000000 100000000 21 100000000 100000000 100000000 100000000 100000000 100000000 100000000 100000000 100000000 100000000 100000000 100000000 100000000 
100000000 100000000 100000000 20 100000000 100000000 100000000 100000000 100000000 100000000 21 100000000 100000000 21 100000000 100000000 100000000 100000000 100000000 100000000 100000000 100000000 25 24 100000000 100000000 100000000 100000000 100000000 100000000 100000000 100000000 100000000 100000000 100000000 20 100000000 100000000 100000000 100000000 100000000 100000000 100000000 100000000 100000000 100000000 23 100000000 100000000 100000000 
100000000 100000000 100000000 100000000 100000000 100000000 100000000 100000000 100000000 100000000 100000000 100000000 100000000 100000000 100000000 100000000 100000000 100000000 100000000 100000000 100000000 100000000 100000000 100000000 100000000 100000000 100000000 100000000 100000000 100000000 100000000 100000000 100000000 100000000 100000000 100000000 100000000 100000000 100000000 100000000 100000000 7 100000000 100000000 100000000 9 100000000 100000000 100000000 100000000 
100000000 100000000 100000000 100000000 100000000 100000000 100000000 100000000 100000000 100000000 100000000 100000000 100000000 100000000 100000000 100000000 100000000 100000000 100000000 100000000 100000000 100000000 100000000 100000000 100000000 100000000 100000000 100000000 100000000 100000000 100000000 100000000 100000000 100000000 100000000 100000000 100000000 100000000 100000000 100000000 100000000 100000000 100000000 100000000 100000000 100000000 100000000 100000000 3 100000000 
100000000 100000000 100000000 100000000 100000000 100000000 100000000 100000000 100000000 100000000 100000000 100000000 100000000 100000000 100000000 100000000 100000000 100000000 100000000 100000000 100000000 100000000 100000000 100000000 100000000 100000000 100000000 100000000 100000000 100000000 100000000 100000000 100000000 100000000 100000000 100000000 100000000 100000000 100000000 7 100000000 100000000 100000000 100000000 100000000 12 100000000 100000000 100000000 100000000 
100000000 100000000 100000000 100000000 100000000 100000000 100000000 100000000 14 100000000 100000000 100000000 100000000 100000000 100000000 100000000 100000000 12 100000000 100000000 100000000 100000000 100000000 100000000 100000000 100000000 100000000 100000000 100000000 100000000 100000000 100000000 100000000 100000000 100000000 100000000 100000000 100000000 100000000 100000000 100000000 100000000 100000000 100000000 100000000 100000000 100000000 100000000 100000000 100000000 
100000000 100000000 100000000 100000000 100000000 100000000 100000000 100000000 100000000 100000000 100000000 15 100000000 100000000 100000000 100000000 14 100000000 100000000 100000000 100000000 100000000 100000000 100000000 11 100000000 100000000 100000000 100000000 100000000 100000000 100000000 100000000 100000000 100000000 100000000 100000000 100000000 100000000 100000000 100000000 100000000 100000000 100000000 100000000 100000000 100000000 100000000 100000000 100000000 
100000000 100000000 7 100000000 100000000 100000000 100000000 100000000 100000000 100000000 100000000 100000000 100000000 100000000 100000000 100000000 100000000 100000000 100000000 100000000 100000000 100000000 100000000 100000000 100000000 100000000 100000000 100000000 100000000 100000000 100000000 100000000 100000000 100000000 10 100000000 100000000 100000000 100000000 100000000 100000000 100000000 100000000 100000000 100000000 100000000 100000000 100000000 100000000 100000000 
100000000 100000000 100000000 100000000 100000000 100000000 100000000 100000000 100000000 100000000 100000000 100000000 100000000 100000000 100000000 100000000 100000000 100000000 100000000 100000000 100000000 100000000 100000000 100000000 100000000 100000000 100000000 100000000 100000000 100000000 100000000 100000000 100000000 100000000 100000000 100000000 100000000 100000000 100000000 9 100000000 12 100000000 100000000 100000000 100000000 100000000 100000000 100000000 100000000 
100000000 100000000 100000000 20 100000000 100000000 100000000 100000000 100000000 100000000 19 100000000 100000000 21 100000000 100000000 100000000 100000000 100000000 100000000 100000000 100000000 23 22 100000000 100000000 100000000 100000000 100000000 100000000 100000000 100000000 100000000 100000000 100000000 18 100000000 100000000 23 100000000 100000000 100000000 100000000 100000000 100000000 100000000 100000000 100000000 100000000 100000000 
100000000 100000000 100000000 100000000 10 100000000 100000000 100000000 100000000 100000000 100000000 100000000 100000000 100000000 100000000 100000000 100000000 100000000 100000000 100000000 100000000 100000000 100000000 100000000 100000000 100000000 17 100000000 100000000 100000000 100000000 100000000 100000000 100000000 100000000 100000000 100000000 100000000 100000000 100000000 100000000 100000000 100000000 100000000 100000000 100000000 100000000 100000000 100000000 100000000 
100000000 100000000 100000000 100000000 100000000 100000000 100000000 100000000 100000000 100000000 100000000 100000000 100000000 100000000 100000000 100000000 100000000 100000000 100000000 100000000 100000000 100000000 100000000 100000000 100000000 100000000 100000000 100000000 100000000 100000000 100000000 100000000 100000000 100000000 100000000 100000000 100000000 100000000 100000000 100000000 3 100000000 100000000 100000000 100000000 100000000 100000000 100000000 100000000 100000000 
100000000 100000000 100000000 100000000 100000000 100000000 100000000 100000000 100000000 100000000 100000000 100000000 100000000 100000000 100000000 100000000 100000000 100000000 100000000 100000000 100000000 100000000 100000000 100000000 100000000 6 100000000 100000000 100000000 100000000 100000000 100000000 100000000 100000000 100000000 100000000 100000000 100000000 100000000 100000000 100000000 100000000 100000000 100000000 100000000 100000000 100000000 100000000 100000000 100000000 
EOF
